NAME: random-16-1971
TYPE: TSP
COMMENT: size=16 seed=1971
DIMENSION: 34
EDGE_WEIGHT_TYPE: EUC_2D
NODE_COORD_SECTION
+0 597 206
-0 597 206
+1 680 255
-1 700 852
+2 547 665
-2 755 334
+3 593 786
-3 442 945
+4 183 154
-4 155 495
+5 379 708
-5 919 496
+6 211 357
-6 22 602
+7 443 131
-7 469 252
+8 653 86
-8 360 681
+9 447 649
-9 618 351
+10 515 920
-10 275 108
+11 187 874
-11 520 640
+12 935 227
-12 1 736
+13 672 597
-13 552 574
+14 578 773
-14 206 820
+15 461 568
-15 80 988
+16 3 732
-16 639 2
PRECEDENCE_SECTION
+0 -0
+1 -1
+2 -2
+3 -3
+4 -4
+5 -5
+6 -6
+7 -7
+8 -8
+9 -9
+10 -10
+11 -11
+12 -12
+13 -13
+14 -14
+15 -15
+16 -16
EOF
